c
c
c
c
c
22 253
0 0 -1
0 1 12
0 2 13
0 3 5
0 4 2
0 5 13
0 6 29
0 7 2
0 8 10
0 9 19
0 10 12
0 11 15
0 12 4
0 13 9
0 14 7
0 15 24
0 16 19
0 17 25
0 18 8
0 19 20
0 20 16
0 21 22
1 1 -1
1 2 8
1 3 16
1 4 26
1 5 23
1 6 19
1 7 25
1 8 12
1 9 5
1 10 29
1 11 9
1 12 26
1 13 28
1 14 14
1 15 16
1 16 12
1 17 7
1 18 26
1 19 28
1 20 10
1 21 5
2 2 -1
2 3 10
2 4 11
2 5 4
2 6 4
2 7 9
2 8 4
2 9 3
2 10 26
2 11 20
2 12 17
2 13 28
2 14 28
2 15 4
2 16 13
2 17 15
2 18 28
2 19 21
2 20 13
2 21 1
3 3 -1
3 4 27
3 5 22
3 6 9
3 7 8
3 8 26
3 9 22
3 10 19
3 11 21
3 12 27
3 13 6
3 14 4
3 15 5
3 16 15
3 17 6
3 18 1
3 19 23
3 20 3
3 21 14
4 4 -1
4 5 14
4 6 19
4 7 21
4 8 11
4 9 13
4 10 18
4 11 23
4 12 11
4 13 23
4 14 16
4 15 20
4 16 13
4 17 13
4 18 13
4 19 22
4 20 3
4 21 15
5 5 -1
5 6 16
5 7 25
5 8 15
5 9 7
5 10 30
5 11 14
5 12 8
5 13 17
5 14 27
5 15 3
5 16 8
5 17 12
5 18 5
5 19 25
5 20 27
5 21 8
6 6 -1
6 7 9
6 8 9
6 9 18
6 10 4
6 11 1
6 12 5
6 13 21
6 14 12
6 15 16
6 16 11
6 17 30
6 18 29
6 19 4
6 20 28
6 21 16
7 7 -1
7 8 21
7 9 26
7 10 4
7 11 5
7 12 12
7 13 10
7 14 30
7 15 22
7 16 15
7 17 25
7 18 7
7 19 26
7 20 27
7 21 6
8 8 -1
8 9 18
8 10 17
8 11 15
8 12 1
8 13 20
8 14 23
8 15 20
8 16 12
8 17 11
8 18 6
8 19 24
8 20 8
8 21 22
9 9 -1
9 10 14
9 11 14
9 12 22
9 13 11
9 14 11
9 15 26
9 16 30
9 17 2
9 18 16
9 19 18
9 20 14
9 21 28
10 10 -1
10 11 21
10 12 27
10 13 7
10 14 27
10 15 8
10 16 28
10 17 2
10 18 30
10 19 4
10 20 3
10 21 19
11 11 -1
11 12 7
11 13 6
11 14 15
11 15 8
11 16 13
11 17 20
11 18 16
11 19 8
11 20 13
11 21 2
12 12 -1
12 13 11
12 14 18
12 15 7
12 16 24
12 17 7
12 18 8
12 19 2
12 20 11
12 21 28
13 13 -1
13 14 27
13 15 28
13 16 6
13 17 18
13 18 9
13 19 9
13 20 20
13 21 6
14 14 -1
14 15 12
14 16 20
14 17 15
14 18 1
14 19 2
14 20 23
14 21 14
15 15 -1
15 16 10
15 17 11
15 18 11
15 19 13
15 20 13
15 21 18
16 16 -1
16 17 5
16 18 28
16 19 18
16 20 18
16 21 7
17 17 -1
17 18 16
17 19 28
17 20 29
17 21 28
18 18 -1
18 19 22
18 20 1
18 21 11
19 19 -1
19 20 21
19 21 15
20 20 -1
20 21 26
21 21 -1
